&FORCE_EVAL
   METHOD Quickstep
   STRESS_TENSOR ANALYTICAL
   &DFT
      BASIS_SET_FILE_NAME BASIS_MOLOPT
      POTENTIAL_FILE_NAME POTENTIAL
      UNRESTRICTED_KOHN_SHAM OFF
      &QS
        EPS_DEFAULT 1.0E-12
        EXTRAPOLATION ASPC
        EXTRAPOLATION_ORDER 4
      &END 
      &SCF
         EPS_SCF 1.0E-6
         MAX_SCF 30
         SCF_GUESS RESTART
         &OUTER_SCF .TRUE.
            EPS_SCF 1.0E-6
            MAX_SCF 50
         &END OUTER_SCF
         &OT .TRUE.
            MINIMIZER DIIS
            ALGORITHM IRAC
            N_HISTORY_VEC 8
            PRECONDITIONER FULL_KINETIC
         &END OT 
      &END SCF
      &XC
         &XC_GRID
            XC_DERIV NN10_SMOOTH
            XC_SMOOTH_RHO NN10
         &END XC_GRID
         &VDW_POTENTIAL
            POTENTIAL_TYPE PAIR_POTENTIAL
            &PAIR_POTENTIAL
               TYPE DFTD3(BJ)
               REFERENCE_FUNCTIONAL PBE
               VERBOSE_OUTPUT .TRUE.
               R_CUTOFF 10.0
               CALCULATE_C9_TERM .TRUE.
               PARAMETER_FILE_NAME dftd3.dat
            &END PAIR_POTENTIAL
         &END VDW_POTENTIAL
         &XC_FUNCTIONAL
           &PBE
           &END PBE
         &END XC_FUNCTIONAL
      &END XC      
      &MGRID
         CUTOFF 600
         REL_CUTOFF 60
         NGRIDS 5
      &END MGRID
   &END DFT
   &SUBSYS
      &CELL
         PERIODIC XYZ
         A 12.42 0.000 0.000
         B 0.000 12.42 0.000 
         C 0.000 0.000 12.42
     &END CELL
     &COORD
  O         0.7467917586        2.9337678587        3.4490432362
  H         0.6746066850        3.2419025010        4.3990049687
  H         0.8908552358        3.7191106317        2.8415417435
  O         8.7755590632       11.5469283152        1.0662611605
  H         9.5624168388       11.7345576867        0.4791479773
  H         9.2045248321       11.5341987926        1.9735551464
  O        10.6804850674        2.1745041676        2.8120577463
  H        11.6492758554        2.3581658548        3.0243966351
  H        10.2309318427        2.8955451951        3.3252692113
  O         3.3677301962       11.4702378830        7.8649117992
  H         2.9171803148       11.9946494802        7.1363238325
  H         4.0706279846       12.0915619288        8.2015378682
  O        10.1950931989        3.1001140599        0.2053428939
  H         9.3071580320        2.7272114455       -0.0742087479
  H        10.4373012000        2.6058227546        1.0369313808
  O         0.6698935660        3.1700216414        6.2062568221
  H         1.0521615912        2.2523785061        6.3031090855
  H         1.4190089165        3.7581640485        6.5303838467
  O         7.5553864633       -0.0307192443       10.1737806961
  H         6.7715999165        0.2165539140        9.5982301986
  H         7.6573010764        0.7223979078       10.8314003169
  O         5.7997694523        5.5091199186       -0.0711617358
  H         5.0670809675        6.1517344454       -0.2554007241
  H         5.6043935649        5.0992528560        0.8010662410
  O         3.9964939451        4.6575521026        9.3384602359
  H         4.7588928136        4.0969464485        9.6293576159
  H         4.4541512372        5.5295348312        9.2181991980
  O         8.7091417372       11.9713965118        5.6978434702
  H         9.2701284491       12.4293153119        6.3847683195
  H         8.2728766177       11.1797153445        6.1117647015
  O        12.0367829865        6.8110882772       10.4307046923
  H        11.3829925117        7.0312517743        9.6946912451
  H        11.8600491154        7.5133236417       11.1242072083
  O        -0.1847997648       11.3818104617        6.1685514266
  H        -0.3980429825       10.7517366028        6.9225851682
  H        -0.3777079679       10.8691714312        5.3328843033
  O         1.9300554181       13.0305119129        6.1629962270
  H         1.1913792779       12.3628975690        6.0536663336
  H         2.3692210619       13.1441477484        5.2749791449
  O         6.8899691154        0.9847295496        1.9123782863
  H         7.5627032529        0.3027640811        1.6156484032
  H         6.9631371407        1.0338414633        2.9188905834
  O        11.5486146060        8.9181492335       12.1841981101
  H        10.6889435159        8.5421148245       12.5426922570
  H        12.1986552403        8.9228782162       12.9446541115
  O         6.1206682712        2.4957209286        6.8280610253
  H         6.8789509143        3.0547127288        7.1374938637
  H         6.4634267328        1.9345778016        6.0639237184
  O         0.9626829436        9.1620814942        1.8059319868
  H         0.3905892263        9.4371689386        2.5871284544
  H         1.4128842936        8.3084527869        2.0519052398
  O         2.8095479022        4.6624599063        6.8954753195
  H         3.2852672471        4.4899283435        7.7626306476
  H         3.4205935773        4.3595347274        6.1602169072
  O         3.3663463422       10.3924706041        1.3790395743
  H         2.4326515195       10.0453880958        1.5116715249
  H         3.6415435464       10.1825333641        0.4522211737
  O         1.6069543980        3.4051540473       11.5000713796
  H         0.7780078158        3.7025772746       11.0122549376
  H         2.3515705617        3.7482435397       10.9615544090
  O         2.6021137527        6.9463510122        2.0385550218
  H         3.1876917990        6.9795127939        2.8360853954
  H         3.1442562857        7.1631789673        1.2310617648
  O         3.0223782246        1.5656558205        3.8418704787
  H         3.4609096389        1.1925944812        3.0226935218
  H         2.1911516315        2.0340538499        3.5341508712
  O         4.3903795067        3.5973667845        4.9254304453
  H         5.0540030646        3.2437298342        5.5802157186
  H         3.8912267177        2.7866848219        4.5834663192
  O         4.2244082407        0.5596801462        1.5804703098
  H         3.9202058421       -0.3906375373        1.6156930907
  H         5.2158539280        0.5662004480        1.7230219961
  O         7.3249499248       10.1385584707       11.5631078602
  H         7.4195570879       10.9757028192       11.0083513437
  H         7.8106962864       10.3763036923       12.3978568166
  O         3.9059296687        0.3435204398       11.2653777948
  H         2.9105968191        0.3163987619       11.2531919624
  H         4.0903790100        0.6043886803       12.2131936263
  O         5.7122504518        4.1048179491        2.5940407120
  H         5.1553651157        3.9424070117        3.4184820309
  H         6.1157105681        3.2348542998        2.4029539313
  O        10.8465545999        3.3731421373        7.8886913576
  H        11.1813044051        3.5987846211        8.8026458961
  H        11.6210852040        3.5042063647        7.2716415875
  O         1.0086791543        4.8052370547        1.4986188576
  H         1.3312282011        4.3405095975        0.6776404592
  H         1.6546891392        5.5456611102        1.6903739995
  O         0.4374953295        7.5893893153        5.1855552797
  H         1.1253885119        7.5762234816        5.9165035814
  H         0.3213022022        8.5249583903        4.9278798704
  O         7.6948943953        8.1082511712        2.5476724946
  H         6.8359825167        8.6089827593        2.6192526321
  H         7.5156034721        7.2156268759        2.9682041366
  O         7.4212077302        5.7712857315        3.9071334603
  H         8.3196135214        5.3137102588        3.9307507340
  H         6.8197602381        5.1375446887        3.4203866801
  O        11.6562773732        4.1098860205       10.4635142880
  H        11.1056449366        3.7456670869       11.2095574385
  H        11.6910789365        5.1076962811       10.5736854511
  O         5.3321781262        0.7361317629        8.8304358543
  H         4.8318130627        1.0729520070        9.6110162268
  H         5.5330918310        1.4806606349        8.1912937121
  O         1.5063840894       10.5515791258        9.5436414859
  H         1.3168221482       11.3119787119       10.1426800651
  H         2.1910546093       10.9288841639        8.9016691195
  O        10.7243918922        5.4357864760        1.4659334837
  H        11.7190234283        5.3531892985        1.4242211800
  H        10.4042978967        4.6290559416        0.9646209798
  O         8.0973844064        7.7297053580       10.2980389001
  H         8.4789092846        7.3834727276       11.1514056916
  H         7.8327376914        8.6420449175       10.5957778304
  O         6.4375178792        3.7873822078       10.4426065506
  H         6.2596582032        4.5320391326       11.1102565287
  H         7.0903878496        4.0979498869        9.7706594005
  O         9.3141231914        7.5285123650        0.3969191623
  H         9.8127975280        6.7541422391        0.7825249620
  H         8.6615335454        7.7921301069        1.1075024622
  O         3.7810835911        7.4467903074       11.9547352685
  H         3.1377159759        7.4216570926       11.1836365457
  H         4.1971323297        8.3311090965       11.8299308089
  O        11.5607308317        9.8859079760        8.3178330237
  H        10.9057197352       10.4955216005        8.7737687565
  H        12.4151615522       10.0323130270        8.8214868496
  O         9.8563256290        4.6592746221        3.9403674828
  H        10.2509585393        5.0623782502        3.1122473853
  H        10.2073915150        5.1922195013        4.7075836001
  O         7.0111702021        9.9511066799        6.6657741526
  H         6.4898430962        9.8606494559        7.5049838693
  H         7.0192112870        9.0327867270        6.2947816524
  O         9.5515330864        8.7781305001        4.4790590595
  H         8.8860763780        8.5764314707        3.7651890105
  H         9.7329255114        7.9272802418        4.9613205462
  O         4.6842648102       10.1482932313       11.3192718217
  H         5.6664223763       10.1655413873       11.5627168658
  H         4.4089305708       11.1166377468       11.2342161451
  O         1.1404186750        0.4681329032       11.2557217747
  H         1.1535829808        1.4531380368       11.3193871238
  H         0.3025683764        0.1433717792       11.6897655840
  O         6.7614627479        1.0263135298        4.6242613483
  H         6.0781974326        0.2610086406        4.7021544526
  H         7.5707740700        0.5570716207        4.9915469448
  O         2.0954464808        7.8054177866        9.7806816257
  H         1.9285509130        8.7837517318        9.8431659811
  H         1.1990193708        7.3933655253        9.9656742340
  O         2.4334899409        7.3375995344        6.9489647137
  H         2.5743206616        6.3435022309        6.9406352166
  H         2.3536014869        7.5762302884        7.9094238048
  O        10.4980940042        6.5563075339        5.8395845651
  H        10.3405567033        6.7453508859        6.7998950319
  H        11.4277764883        6.9107795041        5.6558164364
  O         5.2481410816       11.3542141445        4.9703572208
  H         5.2442973368       10.7198062735        4.1998310460
  H         5.8005489992       10.8666337754        5.6367312667
  O        10.0808417640       12.0045074206        3.3588639272
  H         9.5940282579       11.9228399899        4.2304114913
  H        10.2927441955       12.9771775582        3.2291618135
  O         7.7940235406        2.0466640511       11.9023212689
  H         7.3496088527        1.8608070482       12.7680362331
  H         7.2309924829        2.7236585244       11.4012312754
  O         8.1432896911        4.1602536638        8.0386677335
  H         9.1057045113        3.9178830148        7.9246440233
  H         8.0924105735        5.0812761662        7.7220619555
  O        10.2537944706        7.4886579890        8.5249918768
  H         9.4418122517        7.6562713561        9.0842069797
  H        10.6807577259        8.3847295408        8.3871539038
  O        11.1366735625       11.6825819198       11.9446373242
  H        10.7821043639       11.7969677844       11.0131937457
  H        11.3087256532       10.6991578123       12.0121367041
  O        11.7510905131        9.9925740661        3.8240038530
  H        11.3066053575       10.8345566755        3.5011790404
  H        10.9124467464        9.4263828792        4.0215857785
  O         5.0778844819        9.4582298427        8.6306991926
  H         4.3849572965        9.9753437847        8.1413809187
  H         4.9317426699        9.7088005949        9.5845273110
  O         4.0452718768        7.4750551169        4.5463922697
  H         3.4082348816        7.6649000817        5.2759153949
  H         4.8841625239        7.2653975129        5.0557535014
  O        10.5046994197        0.7651752451        7.2835095470
  H        10.6987207360        1.7314187859        7.4738395155
  H        11.2610565339        0.3305853437        6.8016473155
  O         5.8330229907        6.8260790203        8.6978494959
  H         5.3971418489        7.7233042555        8.6344454909
  H         6.5881252101        7.0027260366        9.3181270755
  O         6.3843105878        7.2247770777        5.9343626648
  H         6.8556314516        6.5605182393        5.3539024393
  H         6.2641883427        6.8576777996        6.8476288032
  O         5.2520062760        9.3908088107        3.0537324331
  H         4.7523945432        8.7373923171        3.6270776462
  H         4.5710649133        9.6936755415        2.3886840472
  O        10.0644400431       11.7892546141        9.4733567379
  H        10.2911854676       12.4215747890        8.7241545663
  H         9.0888208153       11.9470280987        9.6326759006  
     &END COORD
     &KIND O
         BASIS_SET DZVP-MOLOPT-GTH
         POTENTIAL GTH-PBE-q6
     &END KIND
     &KIND H
         BASIS_SET DZVP-MOLOPT-GTH
         POTENTIAL GTH-PBE-q1
     &END KIND
   &END SUBSYS
&END FORCE_EVAL

&MOTION
    &MD
        STEPS 10000
        TIMESTEP 0.5
        ENSEMBLE NVT
        TEMPERATURE 1000 
        &THERMOSTAT
            REGION GLOBAL
            TYPE NOSE
            &NOSE
                TIMECON [fs] 50
            &END
        &END THERMOSTAT
        &BAROSTAT
            PRESSURE [bar] 1.0
            TIMECON [fs] 500
        &END
    &END
    &PRINT
        &VELOCITIES
        &END
        &STRESS
        &END
        &FORCES
        &END
        &CELL
        &END
    &END
&END 

&GLOBAL
   PROJECT cp2k-md
   PRINT_LEVEL LOW
   RUN_TYPE MD
&END GLOBAL
