&FORCE_EVAL
   METHOD Quickstep
   STRESS_TENSOR ANALYTICAL
   &DFT
      BASIS_SET_FILE_NAME BASIS_MOLOPT
      POTENTIAL_FILE_NAME POTENTIAL
      UNRESTRICTED_KOHN_SHAM ON
      &QS
        EPS_DEFAULT 1.0E-12
        EXTRAPOLATION ASPC
        EXTRAPOLATION_ORDER 4
      &END 
      &SCF
         EPS_SCF 1.0E-6
         MAX_SCF 30
         SCF_GUESS RESTART
         &OUTER_SCF .TRUE.
            EPS_SCF 1.0E-6
            MAX_SCF 50
         &END OUTER_SCF
         &OT .TRUE.
            MINIMIZER DIIS
            ALGORITHM IRAC
            N_HISTORY_VEC 8
            PRECONDITIONER FULL_KINETIC
         &END OT 
      &END SCF
      &XC
         &XC_GRID
            XC_DERIV NN10_SMOOTH
            XC_SMOOTH_RHO NN10
         &END XC_GRID
         &VDW_POTENTIAL
            POTENTIAL_TYPE PAIR_POTENTIAL
            &PAIR_POTENTIAL
               TYPE DFTD3(BJ)
               REFERENCE_FUNCTIONAL PBE
               VERBOSE_OUTPUT .TRUE.
               R_CUTOFF 10.0
               CALCULATE_C9_TERM .TRUE.
               PARAMETER_FILE_NAME dftd3.dat
            &END PAIR_POTENTIAL
         &END VDW_POTENTIAL
         &XC_FUNCTIONAL
           &PBE
           &END PBE
         &END XC_FUNCTIONAL
      &END XC      
      &MGRID
         CUTOFF 600
         REL_CUTOFF 60
         NGRIDS 5
      &END MGRID
   &END DFT
   &SUBSYS
      &CELL
         PERIODIC XYZ
         A 12.42 0.000 0.000
         B 0.000 12.42 0.000 
         C 0.000 0.000 12.42
     &END CELL
     &COORD
    O 0.813054 3.08656 3.50497
    H 0.967836 3.56834 4.31755
    H 0.987523 3.72309 2.81159
    O 9.0881 11.864 0.855692
    H 9.6226 11.9715 0.0688452
    H 9.71601 11.6451 1.54433
    O 10.5353 2.55842 3.4082
    H 11.4615 2.79296 3.46697
    H 10.0701 3.3438 3.69652
    O 3.38842 11.7241 7.77986
    H 2.86074 12.0474 7.04948
    H 4.00165 12.4346481 7.96607
    O 10.6948 3.01212 0.74565
    H 9.91998 2.69206 0.283549
    H 10.4948 2.87689 1.67197
    O 1.01268 2.48221 6.86058
    H 1.39842 1.67661 6.51622
    H 1.76259 3.0052 7.1443
    O 7.39231 0.122715 10.0129
    H 6.68171 0.416829 9.4429
    H 7.65106 0.906483 10.4978
    O 5.8304 6.14727 1.22209
    H 5.19529 6.42362 0.561306
    H 5.41276 5.40629 1.66131
    O 4.43097 4.94283 10.0405
    H 5.24429 4.78909 10.5214
    H 4.64405 5.64636 9.42726
    O 8.39666 11.0632 5.65698
    H 9.10939 10.5166 5.98804
    H 7.59953 10.6228 5.95193
    O 12.1731 6.50299 10.476
    H 11.7739 6.72364 9.63438
    H 11.9222 7.22171 11.0564
    O 0.681322 9.70881 5.73203
    H 0.0395739 9.36219 6.35202
    H 0.297406 9.54242 4.87104
    O 1.42752 12.338 5.70916
    H 1.21124 11.4098 5.7996
    H 1.32617 12.518206 4.77446
    O 7.65575 1.54601 1.57472
    H 8.2047 0.802823 1.32432
    H 7.78148 1.62953 2.52002
    O 11.3201 9.03128 11.5175
    H 10.532 8.60759 11.8577
    H 11.8216 9.2673 12.298
    O 6.52182 3.13576 6.5597
    H 7.2604 3.56848 6.98821
    H 6.92532 2.48463 5.9856
    O 0.939531 9.43459 1.12925
    H 0.478117 9.54239 1.96102
    H 1.44877 8.63155 1.2396
    O 3.21153 3.85606 8.0005
    H 3.61224 4.0025 8.85745
    H 3.93858 3.58863 7.43813
    O 3.25801 11.49 1.1386
    H 2.49811 10.9146 1.0503
    H 3.91034 11.119 0.544276
    O 2.12627 3.44379 11.3544
    H 1.28789 3.50583 10.8965
    H 2.76909 3.76691 10.7229
    O 2.72445 7.32048 1.63477
    H 3.01288 7.51185 2.52727
    H 3.51761 7.3979 1.10441
    O 0.887643 0.527313 2.73181
    H 1.40249 0.399019 1.93504
    H 0.889861 1.4747 2.86905
    O 4.2148 2.50592 5.30103
    H 5.06738 2.72574 5.67673
    H 4.3101 1.60141 5.00245
    O 4.9089 1.44121 1.16808
    H 4.35426 0.661227 1.18723
    H 5.79902 1.10543 1.27445
    O 7.87245 10.1456 11.1891
    H 7.91753 10.9054 10.6087
    H 8.23834 10.4546 12.018
    O 4.25931 0.757441 10.9156
    H 3.31485 0.695532 11.0589
    H 4.59479 1.18013 11.7063
    O 4.84588 3.97829 2.73072
    H 4.24941 3.79328 3.45623
    H 4.72986 3.24142 2.13077
    O 11.3461 2.50086 8.46013
    H 11.448 3.0181 9.25916
    H 12.1343 2.68877 7.95041
    O 1.11282 4.7356 1.32246
    H 1.59322 4.20474 0.687033
    H 1.63223 5.53505 1.40883
    O 1.11815 5.86868 5.54002
    H 1.50947 5.78938 6.41005
    H 1.51016 6.66061 5.17182
    O 7.06566 8.30461 2.43411
    H 6.20926 8.73156 2.40849
    H 6.86703 7.36817 2.43574
    O 6.32648 5.43148 4.58683
    H 7.22968 5.20354 4.36629
    H 5.80041 4.73468 4.19427
    O 11.8525 3.71478 10.6008
    H 11.5558 3.50406 11.4862
    H 12.0518 4.6506 10.6308
    O 5.61689 1.18546 8.32909
    H 4.99009 1.52526 8.96786
    H 5.88628 1.95349 7.82517
    O 1.18979 10.4767 9.4641
    H 1.18053 11.1188 10.174
    H 1.82479 10.822 8.83646
    O 10.7043 5.57534 1.75005
    H 11.5923 5.93245 1.7667
    H 10.8274 4.62998 1.6633
    O 7.96227 7.51656 10.0902
    H 8.35953 7.22248 10.91
    H 7.75485 8.43881 10.2413
    O 6.91508 5.10844 11.1265
    H 7.02225 5.28306 12.0616
    H 7.10467 5.94562 10.7027
    O 9.03503 7.55228 0.272559
    H 9.34701 6.78673 0.755234
    H 8.4057 7.96772 0.862246
    O 4.45465 7.73304 11.9583
    H 3.64289 7.74469 11.4511
    H 4.78598 8.62935 11.9016
    O 11.2249 9.61065 7.90499
    H 10.5004 10.1726 8.17993
    H 12.0016 10.0126 8.29438
    O 9.24501 4.73873 4.06953
    H 9.60178 5.39228 3.46791
    H 9.6724 4.92377 4.90588
    O 6.35455 9.71775 6.84308
    H 6.03976 9.62371 7.74221
    H 5.96716 8.97828 6.37458
    O 9.2959 8.16555 4.06771
    H 8.44296 8.31764 3.66062
    H 9.12453 7.51395 4.74773
    O 5.18651 10.6756 11.566
    H 6.13336 10.7015 11.7045
    H 5.01447 11.3883 10.9505
    O 1.50687 0.759883 11.53
    H 1.68871 1.671 11.7606
    H 0.66768 0.79149 11.0705
    O 7.35937 1.00775 4.68545
    H 6.43768 0.786572 4.81938
    H 7.84075 0.304632 5.12166
    O 2.2998 7.84689 10.2575
    H 1.90044 8.57991 9.78896
    H 1.58453 7.22282 10.3812
    O 2.47813 6.41329 7.87524
    H 2.91442 5.57995 8.0529
    H 2.61238 6.92884 8.67058
    O 10.6025 5.90628 6.18229
    H 10.5438 6.48933 6.93924
    H 11.5417 5.81879 6.01902
    O 4.98297 12.0665 5.10874
    H 5.04984 11.4335 4.39378
    H 5.34098 11.6083 5.86921
    O 10.1793 12.1106 3.51673
    H 9.3384 11.9017 3.92367
    H 10.246 13.116978 3.57941
    O 8.13682 2.44497 11.3785
    H 7.9892 2.09581 12.2575
    H 7.6214 3.25116 11.3508
    O 9.1888 4.11527 7.73815
    H 9.80924 3.41309 7.93404
    H 9.73481 4.83947 7.43189
    O 10.333 7.14155 8.55039
    H 9.40159 7.24949 8.74302
    H 10.668 8.03526 8.47642
    O 11.1067 11.9645 10.8821
    H 10.5633 12.0215 10.0961
    H 11.3787 11.0474 10.9199
    O 11.709 9.71595 3.45134
    H 11.2348 10.5466 3.49033
    H 11.0468 9.05223 3.64456
    O 4.57558 9.45992 9.13633
    H 4.25988 10.2146 8.63912
    H 4.43271 9.69911 10.0522
    O 2.79941 8.07303 4.30044
    H 2.43943 8.5813 5.02738
    H 3.61785 7.71245 4.64178
    O 11.1827 0.377967 6.73243
    H 11.3105 1.20658 7.19443
    H 12.0402 0.177785 6.35692
    O 5.59071 6.92589 8.4635
    H 5.1046 7.68774 8.77919
    H 6.40533 6.93581 8.96617
    O 5.06737 7.45666 5.81516
    H 5.37937 6.72514 5.28233
    H 5.11976 7.13696 6.71595
    O 4.92183 10.1904 3.1518
    H 4.28917 9.53719 3.45077
    H 4.42818 10.7427 2.54545
    O 9.46075 11.5329 8.57811
    H 9.77223 12.0068 7.80691
    H 8.6528 11.9825 8.826
     &END COORD
     &KIND O
         BASIS_SET DZVP-MOLOPT-GTH
         POTENTIAL GTH-PBE-q6
     &END KIND
     &KIND H
         BASIS_SET DZVP-MOLOPT-GTH
         POTENTIAL GTH-PBE-q1
     &END KIND
   &END SUBSYS
&END FORCE_EVAL

&MOTION
    &GEO_OPT
        TYPE MINIMIZATION
        MAX_DR    1.0E-03
        MAX_FORCE 1.0E-03
        RMS_DR    1.0E-03
        RMS_FORCE 1.0E-03
        MAX_ITER 200
        OPTIMIZER LBFGS
        &LBFGS
        &END
    &END GEO_OPT
&END 

&GLOBAL
   PROJECT cp2k-go
   PRINT_LEVEL LOW
   RUN_TYPE GEO_OPT
&END GLOBAL
